
se = 40; % nombre de sessions
gr = 20; % nombre de grups de treball
cl = 7; % nombre de slots
minPapersPerSlot = 3; % minim nombre d'articles per sessio i slot
maxSesionsPar = 14; % maxim nombre de sessions paraleles

npMax = [6, 5, 4, 5, 3, 6, 6]; % nombre maxim de papers per slot

np = [3, 3, 14, 8, 7, 17, 3, 9, 16, 13, 4, 4, 17, 13, 5, 7, 3, 3, 3, 9, 3, 3, 4, 14, 6, 10, 16, 12, 10, 11, 6, 4, 13, 5, 7, 10, 3, 18, 12, 15]; % nombre de papers acceptats a cada sessio

WG = [ {}, {1}, {2}, {3}, {4}, {5}, {6}, {}, {7,8,9}, {10,11}, {}, {}, {}, {}, {12,13,14}, {15}, {}, {}, {16}, {}, {17}, {18}, {19}, {20}, {}, {1}, {2,3}, {4}, {5}, {}, {}, {6}, {7}, {8}, {9,10}, {11}, {12,13,14}, {15}, {}, {16} ]; % grups per sessio

